22539
23452
23848
24102
24254
24387
24456
24506
24559
24572
24613
24637
24659
24672
24684
24701
24713
24726
24740
24754
24772
24782
24790
24793
24798
24804
24811
24824
24829
24834
24838
24844
24850
24861
24873
24880
24880
24880
24880
24880
24880
24880
24880
24881
24881
24881
24881
24882
24882
24883
24883
24884
24885
24888
24890
24895
24897
24902
24906
24913
24925
24944
24944
24944
24944
24944
24944
24944
24944
24944
24944
24944
24944
24944
24944
24944
24944
24944
24944
24944
24944
24944
24944
24944
24944
24944
24944
24944
24944
24944
24944
24944
24944
24944
24944
24944
24944
24944
24944
